c ren 1 -> 1
c ren 2 -> 2
c ren 3 -> 3
c ren 4 -> 4
c ren 5 -> 5
c ren 6 -> 6
c ren 7 -> 7
c ren 8 -> 8
c ren 9 -> 9
c ren 10 -> 10
c ren 11 -> 11
c ren 12 -> 12
c ren 13 -> 13
c ren 14 -> 14
c ren 15 -> 15
c ren 17 -> 16
c ren 18 -> 17
c ren 19 -> 18
c ren 20 -> 19
c ren 21 -> 20
c ren 22 -> 21
c ren 23 -> 22
c ren 24 -> 23
c ren 25 -> 24
c ren 27 -> 25
c ren 28 -> 26
c ren 29 -> 27
c ren 30 -> 28
c ren 31 -> 29
c ren 33 -> 30
c ren 38 -> 31
c ren 44 -> 32
c ren 49 -> 33
c ren 52 -> 34
c ren 57 -> 35
c ren 71 -> 36
p cnf 36 140
a 1 2 3 4 5 6 7 8 9 10 11 12 13 14 15 16 17 18 19 20 21 22 23 24 0
d 25 18 19 0
d 26 16 17 0
d 27 22 23 0
d 28 20 21 0
d 29 13 24 0
e 30 31 32 33 34 35 36 0
1 -16 -30 0
-1 -2 -16 30 0
2 -6 22 23 24 -30 -31 -32 -33 -34 -35 -36 0
-1 -2 16 -30 0
1 -6 22 23 24 -30 -31 -32 -33 -34 -35 -36 0
1 -3 22 23 24 -30 -31 -32 -33 -34 -35 -36 0
-1 -2 -4 11 22 23 -24 -30 -31 -32 -33 -34 -35 0
-3 -17 -31 0
3 4 -17 31 0
-4 7 8 9 10 -27 36 0
3 4 17 -31 0
-3 7 8 9 10 -27 36 0
1 2 -5 36 0
31 36 0
-1 -2 -6 11 22 23 -24 -30 -31 -32 -33 -34 -35 -36 0
-1 -2 -3 -11 -22 23 -24 -30 -31 -32 -33 -34 -35 0
-5 -18 -32 0
5 6 -18 32 0
-6 20 34 0
5 6 18 -32 0
-5 20 34 0
-5 -20 -34 0
5 6 -20 34 0
32 36 0
-1 -2 6 -7 36 0
-6 9 -10 -26 -28 36 0
-7 -19 -33 0
7 -8 -19 33 0
-6 9 11 -12 -26 -28 36 0
7 -8 19 -33 0
8 19 33 0
8 -19 -33 0
-7 19 33 0
33 36 0
-1 -2 -6 -11 -22 23 -24 -30 -31 -32 -33 -34 -35 -36 0
-6 9 11 13 15 -26 -28 36 0
5 6 20 -34 0
-5 9 -10 -26 -28 36 0
-5 9 11 -12 -26 -28 36 0
1 2 3 7 -8 26 36 0
34 36 0
1 -5 22 23 24 -30 -31 -32 -33 -34 -35 -36 0
-1 -2 -3 36 0
-7 -21 -35 0
7 8 -21 35 0
2 -16 -30 0
7 8 21 -35 0
-8 21 35 0
-8 -21 -35 0
7 8 9 10 11 -27 36 0
35 36 0
-1 -2 -5 36 0
30 36 0
1 3 4 5 6 22 -23 24 -30 -31 -32 -33 -34 -35 -36 0
-1 -2 -4 -11 -22 23 -24 -30 -31 -32 -33 -34 -35 0
1 -4 22 23 24 -30 -31 -32 -33 -34 -35 -36 0
-3 17 31 0
-4 -17 -31 0
1 2 6 -7 36 0
-6 -20 -34 0
-1 -2 3 4 5 6 -11 -22 -23 -24 -30 -31 -32 -33 -34 -35 -36 0
-7 21 35 0
2 -3 22 23 24 -30 -31 -32 -33 -34 -35 -36 0
-4 17 31 0
-1 -2 -5 -11 -22 23 -24 -30 -31 -32 -33 -34 -35 0
1 2 6 8 -9 36 0
-1 -2 -4 36 0
2 16 30 0
-1 -2 -3 11 22 23 -24 -30 -31 -32 -33 -34 -35 0
1 2 -3 36 0
-1 -2 -5 11 22 23 -24 -30 -31 -32 -33 -34 -35 0
-1 -25 -26 36 0
1 2 3 -6 26 36 0
-2 9 -10 -26 -28 36 0
-3 -25 -26 36 0
1 2 3 7 -10 26 36 0
-1 9 11 13 -14 -26 -28 36 0
-1 9 11 13 15 -26 -28 36 0
-3 5 -6 -26 36 0
-2 5 -6 -26 36 0
-2 -25 -26 36 0
-2 9 11 13 -14 -26 -28 36 0
-2 9 11 -12 -26 -28 36 0
-1 9 11 -12 -26 -28 36 0
2 -4 22 23 24 -30 -31 -32 -33 -34 -35 -36 0
-1 -2 6 7 8 -9 36 0
-1 -2 3 4 5 6 11 22 -23 -24 -30 -31 -32 -33 -34 -35 -36 0
-2 9 11 13 15 -26 -28 36 0
-4 5 -6 -26 36 0
-3 9 -10 -26 -28 36 0
-4 9 -10 -26 -28 36 0
1 2 4 6 7 8 9 11 13 15 28 36 0
-3 9 11 13 15 -26 -28 36 0
1 2 -4 36 0
-4 -25 -26 36 0
-1 9 -10 -26 -28 36 0
-3 9 11 13 -14 -26 -28 36 0
-6 9 11 13 -14 -26 -28 36 0
-1 3 4 5 6 7 8 9 10 11 12 -29 36 0
1 2 6 8 9 10 -11 27 36 0
1 2 3 11 13 -14 26 36 0
-4 9 11 -12 -26 -28 36 0
-7 9 11 -12 -26 -28 36 0
1 2 4 6 8 9 11 13 -14 28 36 0
-5 -25 -26 36 0
-5 9 11 13 15 -26 -28 36 0
-7 9 -10 -26 -28 36 0
-6 18 32 0
-7 -25 -26 36 0
8 -25 -26 36 0
-6 -25 -26 36 0
1 2 3 6 7 8 10 11 12 -13 29 36 0
-8 9 -10 -26 -28 36 0
-7 9 11 13 -14 -26 -28 36 0
-8 9 11 13 -14 -26 -28 36 0
1 2 4 9 11 -12 26 36 0
-5 9 11 13 -14 -26 -28 36 0
1 2 4 7 9 11 13 15 26 36 0
-8 9 11 -12 -26 -28 36 0
-6 -18 -32 0
-1 -2 6 8 9 10 11 12 13 14 -15 36 0
-2 3 4 5 6 7 8 9 10 11 12 -29 36 0
-2 7 8 9 10 -27 36 0
1 2 6 8 10 11 12 13 14 -15 36 0
-1 7 8 9 10 -27 36 0
1 2 4 5 6 7 -8 25 36 0
-5 18 32 0
-1 5 -6 -26 36 0
-8 9 11 13 15 -26 -28 36 0
1 2 6 8 9 11 -12 28 36 0
1 2 3 4 5 6 8 9 -10 28 36 0
-5 7 8 9 10 -27 36 0
-6 7 8 9 10 -27 36 0
2 3 4 5 6 22 -23 24 -30 -31 -32 -33 -34 -35 -36 0
2 -5 22 23 24 -30 -31 -32 -33 -34 -35 -36 0
-7 9 11 13 15 -26 -28 36 0
-4 9 11 13 -14 -26 -28 36 0
-3 9 11 -12 -26 -28 36 0
1 16 30 0
-4 9 11 13 15 -26 -28 36 0
